*Heading
** Job name: Job-1 Model name: Model-1
** Generated by: Abaqus/CAE 2021
*Preprint, echo=NO, model=NO, history=NO, contact=NO
**
** PARTS
**
*Part, name=Part-1
*Node
      1,           1.,           0.,           0.
      2,           1.,           0.,           1.
      3,           0.,           0.,           1.
      4,           0.,           0.,           0.
      5,           1.,           1.,           1.
      6,           0.,           1.,           1.
      7,           0.,           1.,           0.
      8,           1.,           1.,           0.
      9,           2.,           1.,           1.
     10,           2.,           0.,           1.
     11,           2.,           0.,           0.
     12,           2.,           1.,           0.
*Element, type=C3D8
1, 8, 5, 6, 7, 1, 2, 3, 4
2,  5,  2,  1,  8,  9, 10, 11, 12
*Nset, nset=Set-1, generate
 1,  8,  1
*Elset, elset=Set-1
 1,
*Nset, nset=Set-2
  1,  2,  5,  8,  9, 10, 11, 12
*Elset, elset=Set-2
 2,
** Section: Grain-1
*Solid Section, elset=Set-1, material=Material-1
,
** Section: Grain-2
*Solid Section, elset=Set-2, material=Material-2
,
*End Part
**  
**
** ASSEMBLY
**
*Assembly, name=Assembly
**  
*Instance, name=Part-1-1, part=Part-1
*End Instance
**  
*End Assembly
** 
** MATERIALS
** 
*Material, name=Material-1
*Depvar
     12,
*User Material, constants=6
0.,0.,0.,1.,2.,0.
*Material, name=Material-2
*Depvar
     12,
*User Material, constants=6
45.,0.,0.,2.,2.,0.
** ----------------------------------------------------------------
** 
** STEP: Step-1
** 
*Step, name=Step-1, nlgeom=YES
*Static
0.1, 10., 0.0001, 10.
** 
** OUTPUT REQUESTS
** 
*Restart, write, frequency=0
** 
** FIELD OUTPUT: F-Output-1
** 
*Output, field
*Node Output
CF, RF, U
*Element Output, directions=YES
LE, PE, PEEQ, PEMAG, S, SDV
*Contact Output
CDISP, CSTRESS
** 
** HISTORY OUTPUT: H-Output-1
** 
*Output, history, variable=PRESELECT
*End Step
