** Generated by Abaqus and modified by: CreateAbqINPFile.m
**PARTS
**
*Part, name=Part-1
*NODE
1,	1.000000e+00,	0.000000e+00,	0.000000e+00
2,	1.000000e+00,	0.000000e+00,	1.000000e+00
3,	0.000000e+00,	0.000000e+00,	1.000000e+00
4,	0.000000e+00,	0.000000e+00,	0.000000e+00
5,	1.000000e+00,	1.000000e+00,	1.000000e+00
6,	0.000000e+00,	1.000000e+00,	1.000000e+00
7,	0.000000e+00,	1.000000e+00,	0.000000e+00
8,	1.000000e+00,	1.000000e+00,	0.000000e+00
9,	2.000000e+00,	1.000000e+00,	1.000000e+00
10,	2.000000e+00,	0.000000e+00,	1.000000e+00
11,	2.000000e+00,	0.000000e+00,	0.000000e+00
12,	2.000000e+00,	1.000000e+00,	0.000000e+00
13,	1.000000e+00,	0.000000e+00,	0.000000e+00
14,	1.000000e+00,	0.000000e+00,	1.000000e+00
15,	1.000000e+00,	1.000000e+00,	1.000000e+00
16,	1.000000e+00,	1.000000e+00,	0.000000e+00
*User element, nodes=8, type=U1, properties=9, coordinates=3, variables=4
 1, 2, 3
**
*Element, type=U1, elset=UEL
       3,       8,       5,       2,       1,      16,      15,      14,      13
*Uel Property, elset=UEL
	3.000000e+00, 	1.000000e+07, 	1.000000e+07, 	5.000000e+01, 	5.000000e+01, 	2.500000e+00, 	2.500000e+00, 	2.000000e+00, 	1.000000e+00
*Elset, elset=UEL
       3, 
**
*Element, type=C3D8
       1,       8,       5,       6,       7,       1,       2,       3,       4
       2,      15,      14,      13,      16,       9,      10,      11,      12

*Elset, elset=GRAIN-1
1, 
*Elset, elset=GRAIN-2
2, 
*Elset, elset=Phase-1
1, 2, 
**Section: Section_Grain-1
*Solid Section, elset=GRAIN-1, material=MATERIAL-GRAIN1
,

**Section: Section_Grain-2
*Solid Section, elset=GRAIN-2, material=MATERIAL-GRAIN2
,
*End Part
**
**ASSEMBLY
**
*Assembly, name=Assembly
**
*Instance, name=Part-1-1, part=Part-1

*End Instance
****
*Nset, nset=X0, internal, instance=Part-1-1
3, 4, 6, 7, 
**
*Nset, nset=Y0, internal, instance=Part-1-1
1, 2, 3, 4, 10, 11, 13, 14, 
**
*Nset, nset=Z0, internal, instance=Part-1-1
1, 4, 7, 8, 11, 12, 13, 16, 
**
*Nset, nset=X1, internal, instance=Part-1-1
9, 10, 11, 12, 
*End Assembly
**MATERIALS
**
*Material, name=MATERIAL-GRAIN1
*Depvar
12,
*User Material, constants=6
0, 0, 0, 1, 2, 0, 
*Material, name=MATERIAL-GRAIN2
*Depvar
12,
*User Material, constants=6
45, 0, 0, 2, 2, 0, 
**
**
** STEP: Loading
**
*Step, name=Loading, nlgeom=YES, inc=10000
*Static
0.005, 0.01, 1e-05, 10.
** BOUNDARY CONDITIONS
**
** Name: BC-1 Type: Symmetry/Antisymmetry/Encastre
*Boundary
 X0, XSYMM
**
** Name: BC-2 Type: Symmetry/Antisymmetry/Encastre
*Boundary
 Y0, YSYMM
**
** Name: BC-3 Type: Displacement/Rotation
*Boundary
 X1, 1, 1, 0.1
**
** Name: BC-4 Type: Symmetry/Antisymmetry/Encastre
*Boundary
 Z0, ZSYMM
**
**
** CONTROLS
**
*Controls, reset
**
*Controls, parameters=field, field=displacement
**
 , 1., , , , , ,  
**
*Controls, parameters=field, field=hydrostatic fluid pressure
**
 , 1., , , , , ,  
**
*Controls, parameters=field, field=rotation
**
 , 1., , , , , ,  
**
*Controls, parameters=field, field=electrical potential
**
 , 1., , , , , ,  
**
*Controls, parameters=time incrementation
**
 , , , , , , , 10, , , 
**
**
**
** OUTPUT REQUESTS
**
*Restart, write, frequency=0
**
** FIELD OUTPUT: F-Output-1
**
*Output, field, variable=PRESELECT
**
** FIELD OUTPUT: F-Output-2
**
*Element Output, directions=YES
SDV,
**
** HISTORY OUTPUT: H-Output-1
**
*Output, history, variable=PRESELECT
**
*End Step